c File: instances/30_0.30_2.col
c
c Description: Random graph of size 30 vertices and P(0.3) of edges between any two vertices.
p col 30 435
e 1 8
e 1 17
e 1 27
e 2 3
e 2 4
e 2 5
e 2 16
e 2 21
e 2 22
e 2 23
e 2 26
e 2 27
e 2 28
e 2 30
e 3 5
e 3 10
e 3 18
e 3 20
e 3 27
e 4 7
e 4 9
e 4 14
e 4 15
e 4 19
e 4 21
e 4 22
e 4 24
e 5 7
e 5 8
e 5 14
e 5 15
e 5 17
e 5 18
e 5 20
e 5 25
e 5 29
e 6 12
e 6 13
e 6 14
e 6 16
e 6 17
e 6 20
e 6 21
e 6 22
e 6 28
e 7 8
e 7 14
e 7 16
e 7 19
e 7 25
e 8 13
e 8 20
e 8 26
e 8 30
e 9 13
e 9 14
e 9 16
e 9 24
e 9 27
e 9 28
e 10 13
e 10 14
e 10 15
e 10 17
e 10 29
e 11 20
e 11 24
e 11 25
e 11 26
e 11 29
e 11 30
e 12 13
e 12 15
e 12 23
e 13 14
e 13 16
e 13 18
e 13 21
e 14 15
e 14 22
e 14 23
e 14 25
e 14 26
e 15 16
e 15 18
e 15 20
e 15 21
e 15 27
e 16 18
e 16 19
e 16 25
e 17 24
e 17 25
e 18 22
e 18 25
e 18 28
e 18 29
e 18 30
e 19 23
e 19 27
e 20 23
e 20 25
e 21 26
e 21 30
e 22 28
e 22 30
e 23 25
e 23 27
e 23 28
e 24 29
e 24 30
e 25 27
e 25 28
e 27 29
e 28 29